# Solution for model hydro
# Objective value = 1.1965999999521415e+04
bid_price_X_0_0_0 0
bid_price_X_0_0_1 0
bid_price_X_0_1_0 0
bid_price_X_0_1_1 0
bid_price_X_0_2_0 0
bid_price_X_0_2_1 0
bid_price_X_0_3_0 0
bid_price_X_0_3_1 0
bid_price_X_0_4_0 0
bid_price_X_0_4_1 0
bid_price_X_0_5_0 0
bid_price_X_0_5_1 0
bid_price_X_0_6_0 0
bid_price_X_0_6_1 0
bid_price_X_0_7_0 0
bid_price_X_0_7_1 0
bid_price_X_0_8_0 0
bid_price_X_0_8_1 0
bid_price_X_0_9_0 0
bid_price_X_0_9_1 0
bid_price_X_1_0_0 0
bid_price_X_1_0_1 0
bid_price_X_1_1_0 0
bid_price_X_1_1_1 0
bid_price_X_1_2_0 0
bid_price_X_1_2_1 0
bid_price_X_1_3_0 0
bid_price_X_1_3_1 0
bid_price_X_1_4_0 0
bid_price_X_1_4_1 0
bid_price_X_1_5_0 0
bid_price_X_1_5_1 0
bid_price_X_1_6_0 0
bid_price_X_1_6_1 0
bid_price_X_1_7_0 0
bid_price_X_1_7_1 0
bid_price_X_1_8_0 0
bid_price_X_1_8_1 0
bid_price_X_1_9_0 0
bid_price_X_1_9_1 0
bid_price_X_2_0_0 0
bid_price_X_2_0_1 0
bid_price_X_2_1_0 0
bid_price_X_2_1_1 0
bid_price_X_2_2_0 0
bid_price_X_2_2_1 0
bid_price_X_2_3_0 0
bid_price_X_2_3_1 0
bid_price_X_2_4_0 0
bid_price_X_2_4_1 0
bid_price_X_2_5_0 0
bid_price_X_2_5_1 0
bid_price_X_2_6_0 0
bid_price_X_2_6_1 0
bid_price_X_2_7_0 0
bid_price_X_2_7_1 0
bid_price_X_2_8_0 0
bid_price_X_2_8_1 0
bid_price_X_2_9_0 0
bid_price_X_2_9_1 0
production_quantity_X_0_0_0 9.0437380747783024e+01
production_quantity_X_0_0_1 7.9782599352994782e-10
production_quantity_X_0_0_2 1.6791663881837032e-10
production_quantity_X_0_1_0 9.4378638873365901e+01
production_quantity_X_0_1_1 2.2959422605293989e-09
production_quantity_X_0_1_2 4.0640450184835364e-10
production_quantity_X_0_2_0 9.2915132380036852e+01
production_quantity_X_0_2_1 8.6745931575024637e-10
production_quantity_X_0_2_2 3.3957262712434530e-10
production_quantity_X_0_3_0 9.3563341807120921e+01
production_quantity_X_0_3_1 8.4896485425412643e-10
production_quantity_X_0_3_2 3.3909784203679794e-10
production_quantity_X_0_4_0 9.8619408260429353e+01
production_quantity_X_0_4_1 8.0310293300561025e-10
production_quantity_X_0_4_2 3.3642416174921308e-10
production_quantity_X_0_5_0 9.5899930538197069e+01
production_quantity_X_0_5_1 7.5881050282198409e-10
production_quantity_X_0_5_2 3.2784453900562213e-10
production_quantity_X_0_6_0 9.1590600423762837e+01
production_quantity_X_0_6_1 6.6321422290648024e-10
production_quantity_X_0_6_2 3.0789009682714516e-10
production_quantity_X_0_7_0 1.0163065438592093e+02
production_quantity_X_0_7_1 7.2556689801293872e-10
production_quantity_X_0_7_2 3.2711659357816114e-10
production_quantity_X_0_8_0 1.0721087129932897e+02
production_quantity_X_0_8_1 5.4173295114135628e-10
production_quantity_X_0_8_2 2.9220432600255905e-10
production_quantity_X_0_9_0 1.1056921124304360e+02
production_quantity_X_0_9_1 9.6189328268984908e-10
production_quantity_X_0_9_2 3.8383758172756688e-10
production_quantity_X_1_0_0 9.2597952578125316e+01
production_quantity_X_1_0_1 3.4643352622769309e-11
production_quantity_X_1_0_2 1.2951076979784721e-10
production_quantity_X_1_1_0 9.2978389967282283e+01
production_quantity_X_1_1_1 2.5023607396271186e-09
production_quantity_X_1_1_2 4.0644222763872723e-10
production_quantity_X_1_2_0 9.3557150337255649e+01
production_quantity_X_1_2_1 9.0695803601700820e-10
production_quantity_X_1_2_2 3.4229574101367344e-10
production_quantity_X_1_3_0 9.3324734496730827e+01
production_quantity_X_1_3_1 8.8160244371675994e-10
production_quantity_X_1_3_2 3.4179882421559935e-10
production_quantity_X_1_4_0 9.8314804414089892e+01
production_quantity_X_1_4_1 8.2369620249978653e-10
production_quantity_X_1_4_2 3.3859402358716456e-10
production_quantity_X_1_5_0 9.8222887171162057e+01
production_quantity_X_1_5_1 7.7052561477542608e-10
production_quantity_X_1_5_2 3.2926548813871914e-10
production_quantity_X_1_6_0 9.9248270860228885e+01
production_quantity_X_1_6_1 6.6493469443647951e-10
production_quantity_X_1_6_2 3.0704434790052373e-10
production_quantity_X_1_7_0 1.0324673179214555e+02
production_quantity_X_1_7_1 7.3108497988111365e-10
production_quantity_X_1_7_2 3.2712543524687776e-10
production_quantity_X_1_8_0 1.0438904246969311e+02
production_quantity_X_1_8_1 5.8461189101494115e-10
production_quantity_X_1_8_2 3.0193280075576853e-10
production_quantity_X_1_9_0 1.0142160485117716e+02
production_quantity_X_1_9_1 9.1899999470155397e-10
production_quantity_X_1_9_2 3.7169118797348785e-10
production_quantity_X_2_0_0 9.6964666669673989e+01
production_quantity_X_2_0_1 9.9230800307400710e-12
production_quantity_X_2_0_2 1.2862812435998888e-10
production_quantity_X_2_1_0 9.2642971141183963e+01
production_quantity_X_2_1_1 3.2764392440473578e-09
production_quantity_X_2_1_2 4.1323973420676757e-10
production_quantity_X_2_2_0 9.3527717272176616e+01
production_quantity_X_2_2_1 9.7615927266338914e-10
production_quantity_X_2_2_2 3.4788982420730710e-10
production_quantity_X_2_3_0 9.3111923684137707e+01
production_quantity_X_2_3_1 9.5688166060464014e-10
production_quantity_X_2_3_2 3.4888910347991714e-10
production_quantity_X_2_4_0 9.8065787315567420e+01
production_quantity_X_2_4_1 8.6673918237890890e-10
production_quantity_X_2_4_2 3.4483246520809058e-10
production_quantity_X_2_5_0 1.0087718228434974e+02
production_quantity_X_2_5_1 7.8797343725910823e-10
production_quantity_X_2_5_2 3.3317246493158939e-10
production_quantity_X_2_6_0 1.0416112869602580e+02
production_quantity_X_2_6_1 6.5950610348298327e-10
production_quantity_X_2_6_2 3.0602847550997500e-10
production_quantity_X_2_7_0 1.0512261380395906e+02
production_quantity_X_2_7_1 7.4791278823361368e-10
production_quantity_X_2_7_2 3.2794311271558060e-10
production_quantity_X_2_8_0 9.8400086210380692e+01
production_quantity_X_2_8_1 5.6646147408162539e-10
production_quantity_X_2_8_2 2.9716286256784713e-10
production_quantity_X_2_9_0 9.8009183900988958e+01
production_quantity_X_2_9_1 1.4318303404904642e-09
production_quantity_X_2_9_2 4.4182744290445497e-10
storage_volume_X_X_0_0 1.6956261925130752e+02
storage_volume_X_X_0_1 1.6562136112393117e+02
storage_volume_X_X_0_2 1.6708486761875639e+02
storage_volume_X_X_0_3 1.6643665819169186e+02
storage_volume_X_X_0_4 1.6638059173843209e+02
storage_volume_X_X_0_5 1.6910006946071627e+02
storage_volume_X_X_0_6 1.7340939957526649e+02
storage_volume_X_X_0_7 1.6836934561302621e+02
storage_volume_X_X_0_8 1.6278912869983913e+02
storage_volume_X_X_0_9 1.5943078875561048e+02
storage_volume_X_X_1_0 8.6964666672979988e+01
storage_volume_X_X_1_1 8.2642971153740120e+01
storage_volume_X_X_1_2 8.3527717280249703e+01
storage_volume_X_X_1_3 8.3111923693737140e+01
storage_volume_X_X_1_4 8.3065787323179137e+01
storage_volume_X_X_1_5 8.5877182288454179e+01
storage_volume_X_X_1_6 8.9161128714065754e+01
storage_volume_X_X_1_7 8.5122613819821325e+01
storage_volume_X_X_1_8 7.8400086229261802e+01
storage_volume_X_X_1_9 7.8009183903142556e+01
storage_volume_X_X_2_0 3.1674574074713746e-09
storage_volume_X_X_2_1 8.8664791064729798e-09
storage_volume_X_X_2_2 6.7490333321984508e-09
storage_volume_X_X_2_3 8.2936537637579022e-09
storage_volume_X_X_2_4 6.4001568489402416e-09
storage_volume_X_X_2_5 2.9832847303623566e-09
storage_volume_X_X_2_6 1.7074412994588783e-08
storage_volume_X_X_2_7 1.4786408542022400e-08
storage_volume_X_X_2_8 1.8017487946053734e-08
storage_volume_X_X_2_9 2.7993962703476427e-10
b_v_X_0_0_0 5.1925825241911021e+01
b_v_X_0_0_1 3.8511555506837723e+01
b_v_X_0_1_0 5.1925825241911021e+01
b_v_X_0_1_1 4.2452813634157216e+01
b_v_X_0_2_0 5.1925825241911021e+01
b_v_X_0_2_1 4.0989307139332844e+01
b_v_X_0_3_0 5.1925825241911021e+01
b_v_X_0_3_1 4.1637516566397920e+01
b_v_X_0_4_0 5.1925825241911021e+01
b_v_X_0_4_1 4.6693583019657844e+01
b_v_X_0_5_0 5.1925825241911021e+01
b_v_X_0_5_1 4.3974105297372688e+01
b_v_X_0_6_0 5.1925825241911021e+01
b_v_X_0_6_1 3.9664775182822893e+01
b_v_X_0_7_0 5.1925825241911021e+01
b_v_X_0_7_1 4.9704829145062575e+01
b_v_X_0_8_0 5.1925825241911021e+01
b_v_X_0_8_1 5.5285046058251872e+01
b_v_X_0_9_0 5.1925825241911021e+01
b_v_X_0_9_1 5.8643386002478259e+01
b_v_X_1_0_0 5.9365846281591715e+01
b_v_X_1_0_1 3.3232106296697722e+01
b_v_X_1_1_0 5.9365846281591715e+01
b_v_X_1_1_1 3.3612543688599338e+01
b_v_X_1_2_0 5.9365846281591715e+01
b_v_X_1_2_1 3.4191304056913161e+01
b_v_X_1_3_0 5.9365846281591715e+01
b_v_X_1_3_1 3.3958888216362475e+01
b_v_X_1_4_0 5.9365846281591715e+01
b_v_X_1_4_1 3.8948958133660440e+01
b_v_X_1_5_0 5.9365846281591715e+01
b_v_X_1_5_1 3.8857040890670106e+01
b_v_X_1_6_0 5.9365846281591715e+01
b_v_X_1_6_1 3.9882424579609129e+01
b_v_X_1_7_0 5.9365846281591715e+01
b_v_X_1_7_1 4.3880885511612050e+01
b_v_X_1_8_0 5.9365846281591715e+01
b_v_X_1_8_1 4.5023196188987889e+01
b_v_X_1_9_0 5.9365846281591715e+01
b_v_X_1_9_1 4.2055758570876108e+01
b_v_X_2_0_0 6.1475092760806156e+01
b_v_X_2_0_1 3.5489573909006367e+01
b_v_X_2_1_0 6.1475092760806156e+01
b_v_X_2_1_1 3.1167878384067482e+01
b_v_X_2_2_0 6.1475092760806156e+01
b_v_X_2_2_1 3.2052624512694507e+01
b_v_X_2_3_0 6.1475092760806156e+01
b_v_X_2_3_1 3.1636830924637291e+01
b_v_X_2_4_0 6.1475092760806156e+01
b_v_X_2_4_1 3.6590694555972831e+01
b_v_X_2_5_0 6.1475092760806156e+01
b_v_X_2_5_1 3.9402089524664724e+01
b_v_X_2_6_0 6.1475092760806156e+01
b_v_X_2_6_1 4.2686035936185149e+01
b_v_X_2_7_0 6.1475092760806156e+01
b_v_X_2_7_1 4.3647521044228739e+01
b_v_X_2_8_0 6.1475092760806156e+01
b_v_X_2_8_1 3.6924993450438180e+01
b_v_X_2_9_0 6.1475092760806156e+01
b_v_X_2_9_1 3.6534091142056447e+01
p_c_0_0_0_0 100
p_c_0_0_0_1 100
p_c_0_0_1_0 100
p_c_0_0_1_1 100
p_c_0_1_0_0 100
p_c_0_1_0_1 100
p_c_0_1_1_0 100
p_c_0_1_1_1 100
p_c_0_2_0_0 100
p_c_0_2_0_1 100
p_c_0_2_1_0 100
p_c_0_2_1_1 100
p_c_0_3_0_0 100
p_c_0_3_0_1 100
p_c_0_3_1_0 100
p_c_0_3_1_1 100
p_c_0_4_0_0 100
p_c_0_4_0_1 100
p_c_0_4_1_0 100
p_c_0_4_1_1 100
p_c_0_5_0_0 100
p_c_0_5_0_1 100
p_c_0_5_1_0 100
p_c_0_5_1_1 100
p_c_0_6_0_0 100
p_c_0_6_0_1 100
p_c_0_6_1_0 100
p_c_0_6_1_1 100
p_c_0_7_0_0 100
p_c_0_7_0_1 100
p_c_0_7_1_0 100
p_c_0_7_1_1 100
p_c_0_8_0_0 100
p_c_0_8_0_1 100
p_c_0_8_1_0 100
p_c_0_8_1_1 100
p_c_0_9_0_0 100
p_c_0_9_0_1 100
p_c_0_9_1_0 100
p_c_0_9_1_1 100
p_c_1_0_0_0 100
p_c_1_0_0_1 100
p_c_1_0_1_0 100
p_c_1_0_1_1 100
p_c_1_1_0_0 100
p_c_1_1_0_1 100
p_c_1_1_1_0 100
p_c_1_1_1_1 100
p_c_1_2_0_0 100
p_c_1_2_0_1 100
p_c_1_2_1_0 100
p_c_1_2_1_1 100
p_c_1_3_0_0 100
p_c_1_3_0_1 100
p_c_1_3_1_0 100
p_c_1_3_1_1 100
p_c_1_4_0_0 100
p_c_1_4_0_1 100
p_c_1_4_1_0 100
p_c_1_4_1_1 100
p_c_1_5_0_0 100
p_c_1_5_0_1 100
p_c_1_5_1_0 100
p_c_1_5_1_1 100
p_c_1_6_0_0 100
p_c_1_6_0_1 100
p_c_1_6_1_0 100
p_c_1_6_1_1 100
p_c_1_7_0_0 100
p_c_1_7_0_1 100
p_c_1_7_1_0 100
p_c_1_7_1_1 100
p_c_1_8_0_0 100
p_c_1_8_0_1 100
p_c_1_8_1_0 100
p_c_1_8_1_1 100
p_c_1_9_0_0 100
p_c_1_9_0_1 100
p_c_1_9_1_0 100
p_c_1_9_1_1 100
p_c_2_0_0_0 100
p_c_2_0_0_1 100
p_c_2_0_1_0 100
p_c_2_0_1_1 100
p_c_2_1_0_0 100
p_c_2_1_0_1 100
p_c_2_1_1_0 100
p_c_2_1_1_1 100
p_c_2_2_0_0 100
p_c_2_2_0_1 100
p_c_2_2_1_0 100
p_c_2_2_1_1 100
p_c_2_3_0_0 100
p_c_2_3_0_1 100
p_c_2_3_1_0 100
p_c_2_3_1_1 100
p_c_2_4_0_0 100
p_c_2_4_0_1 100
p_c_2_4_1_0 100
p_c_2_4_1_1 100
p_c_2_5_0_0 100
p_c_2_5_0_1 100
p_c_2_5_1_0 100
p_c_2_5_1_1 100
p_c_2_6_0_0 100
p_c_2_6_0_1 100
p_c_2_6_1_0 100
p_c_2_6_1_1 100
p_c_2_7_0_0 100
p_c_2_7_0_1 100
p_c_2_7_1_0 100
p_c_2_7_1_1 100
p_c_2_8_0_0 100
p_c_2_8_0_1 100
p_c_2_8_1_0 100
p_c_2_8_1_1 100
p_c_2_9_0_0 100
p_c_2_9_0_1 100
p_c_2_9_1_0 100
p_c_2_9_1_1 100
v_c_0_0_0_0 5.1925825241911021e+01
v_c_0_0_0_1 0
v_c_0_0_1_0 0
v_c_0_0_1_1 3.8511555506837723e+01
v_c_0_1_0_0 5.1925825241911014e+01
v_c_0_1_0_1 0
v_c_0_1_1_0 0
v_c_0_1_1_1 4.2452813634157216e+01
v_c_0_2_0_0 5.1925825241911028e+01
v_c_0_2_0_1 0
v_c_0_2_1_0 0
v_c_0_2_1_1 4.0989307139332844e+01
v_c_0_3_0_0 5.1925825241911028e+01
v_c_0_3_0_1 0
v_c_0_3_1_0 0
v_c_0_3_1_1 4.1637516566397920e+01
v_c_0_4_0_0 5.1925825241911014e+01
v_c_0_4_0_1 0
v_c_0_4_1_0 0
v_c_0_4_1_1 4.6693583019657844e+01
v_c_0_5_0_0 5.1925825241911035e+01
v_c_0_5_0_1 0
v_c_0_5_1_0 0
v_c_0_5_1_1 4.3974105297372688e+01
v_c_0_6_0_0 5.1925825241911028e+01
v_c_0_6_0_1 0
v_c_0_6_1_0 0
v_c_0_6_1_1 3.9664775182822893e+01
v_c_0_7_0_0 5.1925825241911028e+01
v_c_0_7_0_1 0
v_c_0_7_1_0 0
v_c_0_7_1_1 4.9704829145062575e+01
v_c_0_8_0_0 5.1925825241911035e+01
v_c_0_8_0_1 0
v_c_0_8_1_0 0
v_c_0_8_1_1 5.5285046058251872e+01
v_c_0_9_0_0 5.1925825241911014e+01
v_c_0_9_0_1 0
v_c_0_9_1_0 0
v_c_0_9_1_1 5.8643386002478259e+01
v_c_1_0_0_0 5.9365846281591715e+01
v_c_1_0_0_1 0
v_c_1_0_1_0 0
v_c_1_0_1_1 3.3232106296697722e+01
v_c_1_1_0_0 5.9365846281591729e+01
v_c_1_1_0_1 0
v_c_1_1_1_0 0
v_c_1_1_1_1 3.3612543688599338e+01
v_c_1_2_0_0 5.9365846281591715e+01
v_c_1_2_0_1 0
v_c_1_2_1_0 0
v_c_1_2_1_1 3.4191304056913161e+01
v_c_1_3_0_0 5.9365846281591715e+01
v_c_1_3_0_1 0
v_c_1_3_1_0 0
v_c_1_3_1_1 3.3958888216362475e+01
v_c_1_4_0_0 5.9365846281591701e+01
v_c_1_4_0_1 0
v_c_1_4_1_0 0
v_c_1_4_1_1 3.8948958133660440e+01
v_c_1_5_0_0 5.9365846281591701e+01
v_c_1_5_0_1 0
v_c_1_5_1_0 0
v_c_1_5_1_1 3.8857040890670106e+01
v_c_1_6_0_0 5.9365846281591708e+01
v_c_1_6_0_1 0
v_c_1_6_1_0 0
v_c_1_6_1_1 3.9882424579609129e+01
v_c_1_7_0_0 5.9365846281591708e+01
v_c_1_7_0_1 0
v_c_1_7_1_0 0
v_c_1_7_1_1 4.3880885511612050e+01
v_c_1_8_0_0 5.9365846281591729e+01
v_c_1_8_0_1 0
v_c_1_8_1_0 0
v_c_1_8_1_1 4.5023196188987889e+01
v_c_1_9_0_0 5.9365846281591715e+01
v_c_1_9_0_1 0
v_c_1_9_1_0 0
v_c_1_9_1_1 4.2055758570876108e+01
v_c_2_0_0_0 6.1475092760806156e+01
v_c_2_0_0_1 0
v_c_2_0_1_0 0
v_c_2_0_1_1 3.5489573909006367e+01
v_c_2_1_0_0 6.1475092760806149e+01
v_c_2_1_0_1 0
v_c_2_1_1_0 0
v_c_2_1_1_1 3.1167878384067482e+01
v_c_2_2_0_0 6.1475092760806128e+01
v_c_2_2_0_1 0
v_c_2_2_1_0 0
v_c_2_2_1_1 3.2052624512694507e+01
v_c_2_3_0_0 6.1475092760806149e+01
v_c_2_3_0_1 0
v_c_2_3_1_0 0
v_c_2_3_1_1 3.1636830924637291e+01
v_c_2_4_0_0 6.1475092760806163e+01
v_c_2_4_0_1 0
v_c_2_4_1_0 0
v_c_2_4_1_1 3.6590694555972831e+01
v_c_2_5_0_0 6.1475092760806135e+01
v_c_2_5_0_1 0
v_c_2_5_1_0 0
v_c_2_5_1_1 3.9402089524664724e+01
v_c_2_6_0_0 6.1475092760806142e+01
v_c_2_6_0_1 0
v_c_2_6_1_0 0
v_c_2_6_1_1 4.2686035936185149e+01
v_c_2_7_0_0 6.1475092760806142e+01
v_c_2_7_0_1 0
v_c_2_7_1_0 0
v_c_2_7_1_1 4.3647521044228739e+01
v_c_2_8_0_0 6.1475092760806113e+01
v_c_2_8_0_1 0
v_c_2_8_1_0 0
v_c_2_8_1_1 3.6924993450438180e+01
v_c_2_9_0_0 6.1475092760806128e+01
v_c_2_9_0_1 0
v_c_2_9_1_0 0
v_c_2_9_1_1 3.6534091142056447e+01
pi_c_0_0_0_0 5.1925825241911034e+03
pi_c_0_0_0_1 0
pi_c_0_0_1_0 0
pi_c_0_0_1_1 3.8511555506837731e+03
pi_c_0_1_0_0 5.1925825241911007e+03
pi_c_0_1_0_1 0
pi_c_0_1_1_0 0
pi_c_0_1_1_1 4.2452813634157219e+03
pi_c_0_2_0_0 5.1925825241911016e+03
pi_c_0_2_0_1 0
pi_c_0_2_1_0 0
pi_c_0_2_1_1 4.0989307139332832e+03
pi_c_0_3_0_0 5.1925825241911034e+03
pi_c_0_3_0_1 0
pi_c_0_3_1_0 0
pi_c_0_3_1_1 4.1637516566397917e+03
pi_c_0_4_0_0 5.1925825241910998e+03
pi_c_0_4_0_1 0
pi_c_0_4_1_0 0
pi_c_0_4_1_1 4.6693583019657844e+03
pi_c_0_5_0_0 5.1925825241911016e+03
pi_c_0_5_0_1 0
pi_c_0_5_1_0 0
pi_c_0_5_1_1 4.3974105297372662e+03
pi_c_0_6_0_0 5.1925825241911025e+03
pi_c_0_6_0_1 0
pi_c_0_6_1_0 0
pi_c_0_6_1_1 3.9664775182822891e+03
pi_c_0_7_0_0 5.1925825241911025e+03
pi_c_0_7_0_1 0
pi_c_0_7_1_0 0
pi_c_0_7_1_1 4.9704829145062577e+03
pi_c_0_8_0_0 5.1925825241911007e+03
pi_c_0_8_0_1 0
pi_c_0_8_1_0 0
pi_c_0_8_1_1 5.5285046058251855e+03
pi_c_0_9_0_0 5.1925825241911025e+03
pi_c_0_9_0_1 0
pi_c_0_9_1_0 0
pi_c_0_9_1_1 5.8643386002478283e+03
pi_c_1_0_0_0 5.9365846281591712e+03
pi_c_1_0_0_1 0
pi_c_1_0_1_0 0
pi_c_1_0_1_1 3.3232106296697734e+03
pi_c_1_1_0_0 5.9365846281591721e+03
pi_c_1_1_0_1 0
pi_c_1_1_1_0 0
pi_c_1_1_1_1 3.3612543688599335e+03
pi_c_1_2_0_0 5.9365846281591721e+03
pi_c_1_2_0_1 0
pi_c_1_2_1_0 0
pi_c_1_2_1_1 3.4191304056913168e+03
pi_c_1_3_0_0 5.9365846281591721e+03
pi_c_1_3_0_1 0
pi_c_1_3_1_0 0
pi_c_1_3_1_1 3.3958888216362479e+03
pi_c_1_4_0_0 5.9365846281591703e+03
pi_c_1_4_0_1 0
pi_c_1_4_1_0 0
pi_c_1_4_1_1 3.8948958133660444e+03
pi_c_1_5_0_0 5.9365846281591694e+03
pi_c_1_5_0_1 0
pi_c_1_5_1_0 0
pi_c_1_5_1_1 3.8857040890670105e+03
pi_c_1_6_0_0 5.9365846281591703e+03
pi_c_1_6_0_1 0
pi_c_1_6_1_0 0
pi_c_1_6_1_1 3.9882424579609133e+03
pi_c_1_7_0_0 5.9365846281591712e+03
pi_c_1_7_0_1 0
pi_c_1_7_1_0 0
pi_c_1_7_1_1 4.3880885511612041e+03
pi_c_1_8_0_0 5.9365846281591748e+03
pi_c_1_8_0_1 0
pi_c_1_8_1_0 0
pi_c_1_8_1_1 4.5023196188987886e+03
pi_c_1_9_0_0 5.9365846281591712e+03
pi_c_1_9_0_1 0
pi_c_1_9_1_0 0
pi_c_1_9_1_1 4.2055758570876114e+03
pi_c_2_0_0_0 6.1475092760806147e+03
pi_c_2_0_0_1 0
pi_c_2_0_1_0 0
pi_c_2_0_1_1 3.5489573909006367e+03
pi_c_2_1_0_0 6.1475092760806147e+03
pi_c_2_1_0_1 0
pi_c_2_1_1_0 0
pi_c_2_1_1_1 3.1167878384067481e+03
pi_c_2_2_0_0 6.1475092760806128e+03
pi_c_2_2_0_1 0
pi_c_2_2_1_0 0
pi_c_2_2_1_1 3.2052624512694506e+03
pi_c_2_3_0_0 6.1475092760806137e+03
pi_c_2_3_0_1 0
pi_c_2_3_1_0 0
pi_c_2_3_1_1 3.1636830924637293e+03
pi_c_2_4_0_0 6.1475092760806147e+03
pi_c_2_4_0_1 0
pi_c_2_4_1_0 0
pi_c_2_4_1_1 3.6590694555972823e+03
pi_c_2_5_0_0 6.1475092760806137e+03
pi_c_2_5_0_1 0
pi_c_2_5_1_0 0
pi_c_2_5_1_1 3.9402089524664730e+03
pi_c_2_6_0_0 6.1475092760806128e+03
pi_c_2_6_0_1 0
pi_c_2_6_1_0 0
pi_c_2_6_1_1 4.2686035936185162e+03
pi_c_2_7_0_0 6.1475092760806128e+03
pi_c_2_7_0_1 0
pi_c_2_7_1_0 0
pi_c_2_7_1_1 4.3647521044228743e+03
pi_c_2_8_0_0 6.1475092760806110e+03
pi_c_2_8_0_1 0
pi_c_2_8_1_0 0
pi_c_2_8_1_1 3.6924993450438187e+03
pi_c_2_9_0_0 6.1475092760806119e+03
pi_c_2_9_0_1 0
pi_c_2_9_1_0 0
pi_c_2_9_1_1 3.6534091142056445e+03
